DIMACS_lns/graph-1000-88.col
p edge 1000 1795
e 1 340
e 1 531
e 1 896
e 1 960
e 1 485
e 1 439
e 1 500
e 1 565
e 2 335
e 2 859
e 2 465
e 3 311
e 3 870
e 3 4
e 3 148
e 3 490
e 3 839
e 4 223
e 4 909
e 5 803
e 5 577
e 5 602
e 5 919
e 5 967
e 5 305
e 6 166
e 6 845
e 6 701
e 6 936
e 6 873
e 6 111
e 6 847
e 6 254
e 7 455
e 7 957
e 7 309
e 7 18
e 7 26
e 7 339
e 7 902
e 7 109
e 7 822
e 8 364
e 8 751
e 8 661
e 8 733
e 9 67
e 9 37
e 9 450
e 9 989
e 9 117
e 9 544
e 11 247
e 11 19
e 11 316
e 11 921
e 11 114
e 12 907
e 12 287
e 12 418
e 12 547
e 12 83
e 12 209
e 12 438
e 13 936
e 13 435
e 13 266
e 13 808
e 13 616
e 13 78
e 13 68
e 13 1000
e 13 643
e 13 497
e 14 648
e 14 651
e 14 58
e 14 500
e 14 24
e 14 755
e 14 780
e 17 248
e 17 725
e 17 553
e 17 400
e 17 142
e 18 123
e 18 962
e 18 357
e 18 286
e 18 415
e 18 166
e 18 367
e 19 714
e 19 864
e 19 311
e 19 181
e 19 214
e 19 519
e 19 46
e 20 456
e 20 142
e 20 605
e 21 341
e 21 456
e 21 936
e 21 255
e 24 871
e 24 802
e 24 178
e 24 427
e 24 541
e 26 322
e 26 53
e 26 168
e 26 327
e 27 962
e 27 910
e 27 379
e 27 602
e 27 121
e 27 224
e 28 949
e 28 559
e 28 226
e 28 494
e 30 882
e 30 764
e 30 392
e 30 252
e 30 1000
e 30 37
e 32 806
e 32 348
e 32 119
e 33 119
e 33 480
e 33 631
e 33 209
e 33 297
e 34 251
e 34 316
e 34 125
e 36 687
e 36 229
e 36 81
e 37 975
e 38 529
e 38 460
e 38 599
e 39 174
e 39 979
e 39 551
e 40 763
e 40 591
e 40 672
e 41 773
e 41 681
e 41 618
e 41 957
e 42 58
e 42 82
e 42 481
e 42 222
e 42 647
e 42 589
e 42 510
e 42 394
e 43 108
e 43 608
e 43 579
e 43 257
e 43 996
e 43 112
e 43 980
e 44 553
e 44 395
e 44 654
e 45 355
e 45 622
e 45 421
e 45 221
e 46 694
e 46 793
e 47 583
e 47 768
e 47 435
e 48 657
e 48 864
e 48 437
e 48 322
e 48 714
e 48 537
e 48 162
e 48 604
e 48 560
e 48 782
e 51 152
e 51 664
e 51 642
e 51 72
e 51 459
e 52 433
e 52 211
e 52 480
e 52 228
e 53 55
e 53 538
e 53 572
e 53 818
e 53 781
e 54 766
e 54 335
e 54 298
e 54 139
e 55 680
e 55 136
e 55 129
e 55 679
e 56 224
e 56 95
e 56 500
e 56 992
e 56 988
e 57 85
e 57 548
e 57 326
e 57 696
e 57 484
e 57 842
e 57 638
e 58 661
e 58 826
e 58 414
e 60 754
e 60 96
e 60 923
e 60 420
e 60 762
e 61 411
e 61 720
e 61 847
e 61 918
e 61 89
e 61 915
e 62 380
e 62 354
e 62 424
e 62 549
e 62 711
e 62 244
e 63 286
e 63 473
e 63 925
e 63 145
e 63 579
e 63 198
e 63 471
e 63 276
e 64 80
e 64 678
e 64 899
e 64 401
e 64 707
e 65 467
e 65 783
e 65 186
e 65 814
e 67 417
e 67 525
e 67 181
e 67 287
e 67 872
e 67 925
e 67 301
e 68 867
e 68 599
e 68 919
e 68 169
e 69 271
e 69 964
e 69 73
e 69 625
e 69 763
e 70 820
e 70 612
e 70 224
e 70 404
e 70 239
e 70 108
e 72 992
e 72 376
e 72 764
e 72 300
e 72 261
e 72 271
e 73 477
e 73 229
e 73 275
e 73 526
e 73 654
e 74 228
e 74 595
e 74 365
e 74 681
e 75 366
e 75 678
e 75 388
e 75 977
e 76 302
e 76 307
e 76 96
e 77 613
e 77 812
e 77 364
e 77 746
e 78 794
e 78 955
e 78 315
e 79 766
e 79 447
e 79 544
e 80 795
e 80 86
e 81 624
e 81 663
e 81 940
e 81 847
e 81 1000
e 81 225
e 82 667
e 82 187
e 82 492
e 82 205
e 83 832
e 83 235
e 85 408
e 85 773
e 85 129
e 85 847
e 86 351
e 86 835
e 87 469
e 87 694
e 87 663
e 89 226
e 89 396
e 89 160
e 91 274
e 91 425
e 91 295
e 93 834
e 93 471
e 93 878
e 93 997
e 93 429
e 94 570
e 94 129
e 94 481
e 94 925
e 94 644
e 94 586
e 94 281
e 94 882
e 95 388
e 95 121
e 95 513
e 95 330
e 96 685
e 96 123
e 96 173
e 99 367
e 99 673
e 99 511
e 99 696
e 101 573
e 101 557
e 101 293
e 103 986
e 103 401
e 103 156
e 108 625
e 108 304
e 109 903
e 109 243
e 109 927
e 110 622
e 110 917
e 110 380
e 110 663
e 110 986
e 110 728
e 111 985
e 111 995
e 111 938
e 111 543
e 111 383
e 112 259
e 112 596
e 112 807
e 113 882
e 113 730
e 113 596
e 113 818
e 113 994
e 113 404
e 114 374
e 114 966
e 114 764
e 115 733
e 115 460
e 115 870
e 115 928
e 116 667
e 116 418
e 116 515
e 116 250
e 117 646
e 117 388
e 117 955
e 117 852
e 117 632
e 118 394
e 118 418
e 118 364
e 118 994
e 118 308
e 119 552
e 119 166
e 119 440
e 119 296
e 121 688
e 121 364
e 123 525
e 123 674
e 123 617
e 123 252
e 123 298
e 125 259
e 125 896
e 125 586
e 125 358
e 125 942
e 126 365
e 126 326
e 126 794
e 126 472
e 126 807
e 127 301
e 127 196
e 127 933
e 127 806
e 128 976
e 128 494
e 128 621
e 129 887
e 129 425
e 129 325
e 130 751
e 130 174
e 130 637
e 130 992
e 131 842
e 131 704
e 131 581
e 131 389
e 132 570
e 132 936
e 132 626
e 132 762
e 134 883
e 134 473
e 134 649
e 134 154
e 134 823
e 134 169
e 135 441
e 135 867
e 135 212
e 135 471
e 135 336
e 135 823
e 135 382
e 135 549
e 136 176
e 136 400
e 136 651
e 136 956
e 137 746
e 137 455
e 137 522
e 137 761
e 137 821
e 139 523
e 139 237
e 139 554
e 139 879
e 139 381
e 139 687
e 139 762
e 139 820
e 141 330
e 141 384
e 141 547
e 142 404
e 142 257
e 142 893
e 142 293
e 142 297
e 142 262
e 145 705
e 145 201
e 145 991
e 147 525
e 147 725
e 147 541
e 147 408
e 147 175
e 147 946
e 147 642
e 148 647
e 148 786
e 148 816
e 148 249
e 152 722
e 152 995
e 154 292
e 154 853
e 154 824
e 154 697
e 156 955
e 156 780
e 156 202
e 157 618
e 157 988
e 157 383
e 159 573
e 159 601
e 159 647
e 159 471
e 160 504
e 160 176
e 160 932
e 162 944
e 162 877
e 166 830
e 166 754
e 166 926
e 166 591
e 166 482
e 168 336
e 168 288
e 169 708
e 170 217
e 170 482
e 170 316
e 172 459
e 172 308
e 172 830
e 172 317
e 173 284
e 173 329
e 173 497
e 174 884
e 174 776
e 175 651
e 175 693
e 175 647
e 176 981
e 176 750
e 176 684
e 176 600
e 176 460
e 176 224
e 176 194
e 177 329
e 177 227
e 177 220
e 178 309
e 178 358
e 178 681
e 178 385
e 178 995
e 178 465
e 178 227
e 179 329
e 179 928
e 179 320
e 179 193
e 179 749
e 179 674
e 179 664
e 181 847
e 186 383
e 186 793
e 187 331
e 187 538
e 187 555
e 190 943
e 190 907
e 190 603
e 192 657
e 192 316
e 192 659
e 193 967
e 193 395
e 193 695
e 194 928
e 194 257
e 194 295
e 194 581
e 195 198
e 195 380
e 195 836
e 195 491
e 196 559
e 196 753
e 198 524
e 201 576
e 201 404
e 201 778
e 202 609
e 202 228
e 203 985
e 203 672
e 203 318
e 204 920
e 204 588
e 204 708
e 205 488
e 205 357
e 205 997
e 205 645
e 205 758
e 205 421
e 205 253
e 205 768
e 205 383
e 205 458
e 207 559
e 207 727
e 207 320
e 208 686
e 208 619
e 208 659
e 208 247
e 208 460
e 208 525
e 209 216
e 209 563
e 209 733
e 211 478
e 211 243
e 211 572
e 212 734
e 212 331
e 213 699
e 213 240
e 213 873
e 213 307
e 213 799
e 213 339
e 214 749
e 214 555
e 216 882
e 216 939
e 217 852
e 217 309
e 217 601
e 218 643
e 218 645
e 218 483
e 218 721
e 220 316
e 220 866
e 220 425
e 220 377
e 220 622
e 221 743
e 221 987
e 222 226
e 222 514
e 222 663
e 222 860
e 222 906
e 222 380
e 223 591
e 223 338
e 223 567
e 224 431
e 224 345
e 225 336
e 225 316
e 225 303
e 225 558
e 225 530
e 226 246
e 226 523
e 226 733
e 226 392
e 227 871
e 228 609
e 228 959
e 228 955
e 229 979
e 229 583
e 229 796
e 229 711
e 230 320
e 230 860
e 230 759
e 230 621
e 233 423
e 233 678
e 233 711
e 233 699
e 235 336
e 235 843
e 235 665
e 237 409
e 237 903
e 237 906
e 239 925
e 239 357
e 240 374
e 240 392
e 240 705
e 240 458
e 240 975
e 240 695
e 240 303
e 241 988
e 241 704
e 241 471
e 242 269
e 242 557
e 242 526
e 243 325
e 243 917
e 243 605
e 243 263
e 244 348
e 244 378
e 244 445
e 245 665
e 245 555
e 245 910
e 245 605
e 245 748
e 245 660
e 246 823
e 246 504
e 246 388
e 247 301
e 247 515
e 247 302
e 247 803
e 248 458
e 248 598
e 248 305
e 248 379
e 248 855
e 249 276
e 249 362
e 250 255
e 250 486
e 250 749
e 251 762
e 251 685
e 252 754
e 252 549
e 252 878
e 252 278
e 252 532
e 253 522
e 253 818
e 253 905
e 253 282
e 254 933
e 254 777
e 255 807
e 255 747
e 255 358
e 255 920
e 257 415
e 257 909
e 257 476
e 257 726
e 257 631
e 257 376
e 259 804
e 259 563
e 259 424
e 259 595
e 260 877
e 260 434
e 260 818
e 260 980
e 261 943
e 261 600
e 261 539
e 262 449
e 262 777
e 262 926
e 262 757
e 263 747
e 263 693
e 263 771
e 263 497
e 265 761
e 265 938
e 265 670
e 265 644
e 265 619
e 265 449
e 266 997
e 266 326
e 268 878
e 268 271
e 268 389
e 269 427
e 269 819
e 269 341
e 269 543
e 269 783
e 269 381
e 270 682
e 270 686
e 270 676
e 270 763
e 271 589
e 274 966
e 274 688
e 274 567
e 274 902
e 275 338
e 275 309
e 275 961
e 276 601
e 276 556
e 276 290
e 276 852
e 277 549
e 277 780
e 277 326
e 277 935
e 278 778
e 278 601
e 278 898
e 278 598
e 278 905
e 278 877
e 278 360
e 280 553
e 280 838
e 280 490
e 281 686
e 281 339
e 281 682
e 281 416
e 281 904
e 282 752
e 282 327
e 284 600
e 284 915
e 286 655
e 287 466
e 287 362
e 287 905
e 287 389
e 288 375
e 288 572
e 290 819
e 290 853
e 290 522
e 292 604
e 292 943
e 292 634
e 292 891
e 293 675
e 293 875
e 294 987
e 294 680
e 294 602
e 294 994
e 295 631
e 295 677
e 296 521
e 296 321
e 297 304
e 298 847
e 298 740
e 300 477
e 300 895
e 300 446
e 300 881
e 300 951
e 300 928
e 300 349
e 301 342
e 301 877
e 301 415
e 301 580
e 301 367
e 301 664
e 302 499
e 302 725
e 303 907
e 303 715
e 303 630
e 303 753
e 304 748
e 304 556
e 304 877
e 305 379
e 305 738
e 305 511
e 307 776
e 307 782
e 307 409
e 307 601
e 308 864
e 308 765
e 308 776
e 308 779
e 309 915
e 309 685
e 309 567
e 309 819
e 309 727
e 310 556
e 310 570
e 310 554
e 311 631
e 311 868
e 311 751
e 311 746
e 313 822
e 313 500
e 313 779
e 313 785
e 313 794
e 314 859
e 314 693
e 314 711
e 314 765
e 315 934
e 315 795
e 315 748
e 316 486
e 316 927
e 316 534
e 317 738
e 317 684
e 318 522
e 318 704
e 318 762
e 320 704
e 320 749
e 320 589
e 321 450
e 321 994
e 322 841
e 322 460
e 325 674
e 325 526
e 326 899
e 326 426
e 326 853
e 326 406
e 326 400
e 327 824
e 327 559
e 328 573
e 328 938
e 328 956
e 328 548
e 328 524
e 328 734
e 329 757
e 330 958
e 331 905
e 331 631
e 334 445
e 334 426
e 334 627
e 334 948
e 334 845
e 334 877
e 335 521
e 335 677
e 336 673
e 336 755
e 336 871
e 336 342
e 336 563
e 336 679
e 336 588
e 336 944
e 336 617
e 338 423
e 339 779
e 339 918
e 340 901
e 340 381
e 341 637
e 341 450
e 341 755
e 342 599
e 342 863
e 342 537
e 342 970
e 342 887
e 343 977
e 343 494
e 343 499
e 345 677
e 345 816
e 345 846
e 347 729
e 347 918
e 347 946
e 347 949
e 348 785
e 348 821
e 349 879
e 349 697
e 349 791
e 349 638
e 350 903
e 350 435
e 350 493
e 350 360
e 350 793
e 350 688
e 351 519
e 351 500
e 352 510
e 352 645
e 352 740
e 352 446
e 352 492
e 353 650
e 353 839
e 353 971
e 354 496
e 354 688
e 354 409
e 355 419
e 355 803
e 357 846
e 357 787
e 357 720
e 358 827
e 358 750
e 358 985
e 359 366
e 359 836
e 359 380
e 360 439
e 360 918
e 361 934
e 361 846
e 361 518
e 362 431
e 362 469
e 362 667
e 364 874
e 364 899
e 364 787
e 365 613
e 365 547
e 366 886
e 366 378
e 367 497
e 368 777
e 368 674
e 368 894
e 368 873
e 368 515
e 368 396
e 370 776
e 370 961
e 370 940
e 371 705
e 371 727
e 371 580
e 371 563
e 374 434
e 374 748
e 375 726
e 375 555
e 375 729
e 375 571
e 376 613
e 376 785
e 377 703
e 377 836
e 377 427
e 378 961
e 378 430
e 379 617
e 379 794
e 380 625
e 380 915
e 381 573
e 382 895
e 382 421
e 383 822
e 383 623
e 383 499
e 384 895
e 384 401
e 385 990
e 385 695
e 388 806
e 388 866
e 392 843
e 394 871
e 394 559
e 395 753
e 395 882
e 395 484
e 395 605
e 395 480
e 396 927
e 396 529
e 396 754
e 396 705
e 396 984
e 398 912
e 398 423
e 398 466
e 398 445
e 400 659
e 400 443
e 401 659
e 401 642
e 401 418
e 402 417
e 402 867
e 402 940
e 404 768
e 404 755
e 404 795
e 404 704
e 406 525
e 406 908
e 408 951
e 408 986
e 408 476
e 408 745
e 409 697
e 409 558
e 411 632
e 411 546
e 411 631
e 414 741
e 414 693
e 414 926
e 414 866
e 414 537
e 414 845
e 415 534
e 415 860
e 415 598
e 416 691
e 416 699
e 416 697
e 417 686
e 417 604
e 417 687
e 417 455
e 418 728
e 418 565
e 418 768
e 418 961
e 419 996
e 419 815
e 419 826
e 420 927
e 420 695
e 420 674
e 421 894
e 421 599
e 423 566
e 423 541
e 423 526
e 423 783
e 423 842
e 423 427
e 424 437
e 424 787
e 426 989
e 426 595
e 427 818
e 428 904
e 428 854
e 428 612
e 428 853
e 428 534
e 429 533
e 429 792
e 429 838
e 429 743
e 430 483
e 430 664
e 430 695
e 430 808
e 430 708
e 430 734
e 431 781
e 431 756
e 433 660
e 433 878
e 434 459
e 434 727
e 435 927
e 435 696
e 435 611
e 435 979
e 437 469
e 437 929
e 437 755
e 438 984
e 438 508
e 439 639
e 440 915
e 440 893
e 440 990
e 441 976
e 441 622
e 443 647
e 443 881
e 443 617
e 446 492
e 446 925
e 447 792
e 447 600
e 448 458
e 448 488
e 448 925
e 449 525
e 449 853
e 450 530
e 450 886
e 450 948
e 450 525
e 452 727
e 452 979
e 452 687
e 452 558
e 452 763
e 452 595
e 452 701
e 453 874
e 453 806
e 453 837
e 453 814
e 455 681
e 455 691
e 456 867
e 456 575
e 456 521
e 456 680
e 456 935
e 459 994
e 459 708
e 460 921
e 460 942
e 460 462
e 461 478
e 461 572
e 461 971
e 461 852
e 461 928
e 461 838
e 462 571
e 462 750
e 462 599
e 462 661
e 462 581
e 462 686
e 462 741
e 465 738
e 465 615
e 465 490
e 466 766
e 466 538
e 466 962
e 467 588
e 467 761
e 471 554
e 472 665
e 472 864
e 473 734
e 473 931
e 476 523
e 476 912
e 477 608
e 477 799
e 477 753
e 478 975
e 480 644
e 480 521
e 481 626
e 481 864
e 481 806
e 482 826
e 482 897
e 482 570
e 483 974
e 484 556
e 484 933
e 485 570
e 485 615
e 486 860
e 486 634
e 486 768
e 486 787
e 488 855
e 490 619
e 490 707
e 490 932
e 490 511
e 491 928
e 491 758
e 491 757
e 491 807
e 492 566
e 492 843
e 492 609
e 493 674
e 493 624
e 494 859
e 494 775
e 494 701
e 496 977
e 496 884
e 497 680
e 499 619
e 500 714
e 504 563
e 506 834
e 506 912
e 506 796
e 506 936
e 506 960
e 508 876
e 508 565
e 508 531
e 510 738
e 510 1000
e 510 799
e 511 839
e 513 651
e 513 548
e 513 806
e 514 853
e 514 637
e 515 533
e 515 793
e 515 531
e 515 643
e 515 616
e 518 911
e 518 547
e 518 725
e 518 666
e 519 939
e 519 600
e 519 661
e 519 655
e 519 590
e 521 917
e 521 796
e 521 970
e 522 908
e 523 894
e 523 566
e 524 761
e 524 904
e 524 722
e 524 655
e 525 749
e 525 657
e 525 571
e 526 874
e 526 546
e 529 722
e 530 699
e 530 781
e 530 677
e 530 765
e 530 649
e 532 987
e 532 903
e 533 688
e 534 595
e 534 615
e 535 648
e 535 832
e 535 798
e 537 659
e 537 850
e 538 959
e 539 661
e 539 934
e 539 745
e 539 763
e 541 749
e 541 938
e 541 625
e 543 715
e 543 949
e 544 757
e 544 1000
e 544 590
e 546 560
e 546 839
e 547 746
e 548 777
e 549 891
e 550 691
e 550 626
e 550 638
e 551 946
e 551 983
e 552 893
e 552 576
e 553 590
e 553 992
e 553 789
e 553 960
e 553 615
e 554 646
e 554 958
e 555 763
e 557 607
e 559 871
e 560 740
e 563 766
e 563 969
e 565 693
e 565 942
e 566 626
e 570 853
e 570 854
e 570 756
e 570 891
e 571 985
e 571 935
e 572 652
e 572 776
e 572 920
e 574 608
e 574 809
e 574 824
e 574 595
e 574 972
e 575 686
e 575 850
e 576 926
e 577 703
e 577 939
e 577 605
e 579 703
e 580 989
e 580 853
e 580 727
e 581 853
e 583 604
e 583 721
e 586 764
e 588 933
e 589 750
e 589 626
e 590 625
e 590 668
e 590 608
e 591 878
e 592 818
e 592 726
e 592 839
e 595 866
e 595 676
e 596 615
e 600 893
e 600 868
e 600 725
e 600 730
e 601 986
e 601 922
e 603 648
e 603 677
e 604 638
e 604 761
e 605 754
e 607 841
e 607 964
e 607 665
e 609 834
e 609 661
e 609 926
e 611 687
e 611 885
e 612 802
e 612 727
e 612 741
e 612 996
e 612 893
e 613 901
e 616 798
e 616 944
e 617 940
e 617 979
e 617 941
e 617 909
e 618 821
e 618 838
e 619 836
e 621 942
e 621 804
e 622 779
e 622 839
e 623 697
e 623 931
e 623 667
e 623 848
e 624 749
e 624 639
e 625 758
e 626 873
e 627 896
e 627 681
e 627 722
e 627 860
e 627 668
e 630 923
e 630 979
e 630 659
e 631 957
e 631 934
e 631 676
e 632 919
e 632 986
e 632 778
e 634 915
e 634 994
e 637 923
e 637 929
e 638 699
e 638 944
e 638 875
e 639 827
e 639 660
e 639 875
e 642 678
e 644 971
e 644 809
e 646 677
e 646 881
e 647 958
e 647 820
e 647 918
e 648 949
e 648 956
e 649 983
e 649 782
e 649 785
e 650 708
e 650 823
e 651 794
e 651 747
e 651 951
e 651 682
e 652 966
e 652 850
e 654 696
e 654 964
e 655 906
e 659 834
e 660 728
e 663 964
e 665 749
e 665 885
e 665 935
e 666 949
e 666 809
e 667 868
e 668 720
e 670 921
e 670 897
e 670 791
e 672 756
e 672 734
e 673 980
e 673 909
e 673 955
e 674 785
e 674 758
e 675 816
e 675 684
e 676 688
e 676 855
e 676 921
e 676 904
e 677 911
e 677 922
e 677 842
e 679 837
e 680 734
e 680 981
e 680 918
e 681 720
e 681 783
e 681 855
e 684 855
e 686 705
e 686 921
e 687 705
e 687 990
e 687 870
e 687 988
e 687 764
e 688 988
e 691 697
e 691 994
e 691 743
e 693 927
e 693 901
e 693 820
e 694 764
e 694 802
e 695 884
e 697 829
e 699 752
e 699 911
e 699 808
e 701 725
e 702 829
e 702 921
e 702 766
e 702 868
e 703 887
e 705 902
e 707 725
e 707 975
e 707 830
e 707 834
e 708 852
e 711 878
e 711 875
e 714 754
e 714 883
e 714 927
e 714 806
e 715 841
e 715 981
e 720 974
e 721 749
e 722 958
e 722 934
e 726 878
e 726 791
e 729 807
e 730 985
e 730 926
e 734 848
e 738 877
e 738 969
e 740 931
e 740 925
e 741 897
e 743 974
e 743 826
e 745 967
e 745 780
e 746 991
e 748 911
e 749 901
e 750 792
e 752 885
e 752 926
e 752 778
e 753 871
e 754 908
e 755 898
e 755 879
e 756 781
e 757 776
e 757 964
e 759 855
e 759 984
e 761 977
e 763 946
e 763 933
e 763 883
e 764 843
e 764 792
e 765 773
e 765 768
e 765 978
e 765 806
e 766 898
e 771 860
e 771 901
e 773 912
e 773 877
e 775 827
e 775 859
e 775 927
e 778 910
e 778 789
e 779 991
e 779 835
e 780 819
e 783 850
e 785 866
e 786 970
e 786 943
e 786 934
e 787 834
e 787 881
e 789 894
e 791 949
e 792 976
e 792 808
e 794 867
e 795 986
e 798 906
e 802 829
e 802 961
e 804 915
e 806 879
e 808 876
e 809 966
e 812 886
e 812 932
e 812 815
e 814 985
e 814 893
e 815 878
e 815 956
e 816 827
e 819 989
e 819 948
e 822 991
e 824 881
e 829 881
e 830 877
e 832 863
e 835 986
e 836 941
e 837 978
e 838 893
e 838 1000
e 839 979
e 841 901
e 845 946
e 847 991
e 848 925
e 854 910
e 863 976
e 867 899
e 871 872
e 872 979
e 876 992
e 877 972
e 882 931
e 886 955
e 887 943
e 891 946
e 893 996
e 897 991
e 897 908
e 898 922
e 898 983
e 898 934
e 903 978
e 904 942
e 907 932
e 915 958
e 923 964
e 925 957
e 926 976
e 926 960
e 929 988
e 935 939
e 941 962
e 946 969
e 955 994
e 959 978
e 972 980
e 981 983
