txt_Ins/graph-1000-88.txt
n 1000
e 0 339
e 0 530
e 0 895
e 0 959
e 0 484
e 0 438
e 0 499
e 0 564
e 1 334
e 1 858
e 1 464
e 2 310
e 2 869
e 2 3
e 2 147
e 2 489
e 2 838
e 3 222
e 3 908
e 4 802
e 4 576
e 4 601
e 4 918
e 4 966
e 4 304
e 5 165
e 5 844
e 5 700
e 5 935
e 5 872
e 5 110
e 5 846
e 5 253
e 6 454
e 6 956
e 6 308
e 6 17
e 6 25
e 6 338
e 6 901
e 6 108
e 6 821
e 7 363
e 7 750
e 7 660
e 7 732
e 8 66
e 8 36
e 8 449
e 8 988
e 8 116
e 8 543
e 10 246
e 10 18
e 10 315
e 10 920
e 10 113
e 11 906
e 11 286
e 11 417
e 11 546
e 11 82
e 11 208
e 11 437
e 12 935
e 12 434
e 12 265
e 12 807
e 12 615
e 12 77
e 12 67
e 12 999
e 12 642
e 12 496
e 13 647
e 13 650
e 13 57
e 13 499
e 13 23
e 13 754
e 13 779
e 16 247
e 16 724
e 16 552
e 16 399
e 16 141
e 17 122
e 17 961
e 17 356
e 17 285
e 17 414
e 17 165
e 17 366
e 18 713
e 18 863
e 18 310
e 18 180
e 18 213
e 18 518
e 18 45
e 19 455
e 19 141
e 19 604
e 20 340
e 20 455
e 20 935
e 20 254
e 23 870
e 23 801
e 23 177
e 23 426
e 23 540
e 25 321
e 25 52
e 25 167
e 25 326
e 26 961
e 26 909
e 26 378
e 26 601
e 26 120
e 26 223
e 27 948
e 27 558
e 27 225
e 27 493
e 29 881
e 29 763
e 29 391
e 29 251
e 29 999
e 29 36
e 31 805
e 31 347
e 31 118
e 32 118
e 32 479
e 32 630
e 32 208
e 32 296
e 33 250
e 33 315
e 33 124
e 35 686
e 35 228
e 35 80
e 36 974
e 37 528
e 37 459
e 37 598
e 38 173
e 38 978
e 38 550
e 39 762
e 39 590
e 39 671
e 40 772
e 40 680
e 40 617
e 40 956
e 41 57
e 41 81
e 41 480
e 41 221
e 41 646
e 41 588
e 41 509
e 41 393
e 42 107
e 42 607
e 42 578
e 42 256
e 42 995
e 42 111
e 42 979
e 43 552
e 43 394
e 43 653
e 44 354
e 44 621
e 44 420
e 44 220
e 45 693
e 45 792
e 46 582
e 46 767
e 46 434
e 47 656
e 47 863
e 47 436
e 47 321
e 47 713
e 47 536
e 47 161
e 47 603
e 47 559
e 47 781
e 50 151
e 50 663
e 50 641
e 50 71
e 50 458
e 51 432
e 51 210
e 51 479
e 51 227
e 52 54
e 52 537
e 52 571
e 52 817
e 52 780
e 53 765
e 53 334
e 53 297
e 53 138
e 54 679
e 54 135
e 54 128
e 54 678
e 55 223
e 55 94
e 55 499
e 55 991
e 55 987
e 56 84
e 56 547
e 56 325
e 56 695
e 56 483
e 56 841
e 56 637
e 57 660
e 57 825
e 57 413
e 59 753
e 59 95
e 59 922
e 59 419
e 59 761
e 60 410
e 60 719
e 60 846
e 60 917
e 60 88
e 60 914
e 61 379
e 61 353
e 61 423
e 61 548
e 61 710
e 61 243
e 62 285
e 62 472
e 62 924
e 62 144
e 62 578
e 62 197
e 62 470
e 62 275
e 63 79
e 63 677
e 63 898
e 63 400
e 63 706
e 64 466
e 64 782
e 64 185
e 64 813
e 66 416
e 66 524
e 66 180
e 66 286
e 66 871
e 66 924
e 66 300
e 67 866
e 67 598
e 67 918
e 67 168
e 68 270
e 68 963
e 68 72
e 68 624
e 68 762
e 69 819
e 69 611
e 69 223
e 69 403
e 69 238
e 69 107
e 71 991
e 71 375
e 71 763
e 71 299
e 71 260
e 71 270
e 72 476
e 72 228
e 72 274
e 72 525
e 72 653
e 73 227
e 73 594
e 73 364
e 73 680
e 74 365
e 74 677
e 74 387
e 74 976
e 75 301
e 75 306
e 75 95
e 76 612
e 76 811
e 76 363
e 76 745
e 77 793
e 77 954
e 77 314
e 78 765
e 78 446
e 78 543
e 79 794
e 79 85
e 80 623
e 80 662
e 80 939
e 80 846
e 80 999
e 80 224
e 81 666
e 81 186
e 81 491
e 81 204
e 82 831
e 82 234
e 84 407
e 84 772
e 84 128
e 84 846
e 85 350
e 85 834
e 86 468
e 86 693
e 86 662
e 88 225
e 88 395
e 88 159
e 90 273
e 90 424
e 90 294
e 92 833
e 92 470
e 92 877
e 92 996
e 92 428
e 93 569
e 93 128
e 93 480
e 93 924
e 93 643
e 93 585
e 93 280
e 93 881
e 94 387
e 94 120
e 94 512
e 94 329
e 95 684
e 95 122
e 95 172
e 98 366
e 98 672
e 98 510
e 98 695
e 100 572
e 100 556
e 100 292
e 102 985
e 102 400
e 102 155
e 107 624
e 107 303
e 108 902
e 108 242
e 108 926
e 109 621
e 109 916
e 109 379
e 109 662
e 109 985
e 109 727
e 110 984
e 110 994
e 110 937
e 110 542
e 110 382
e 111 258
e 111 595
e 111 806
e 112 881
e 112 729
e 112 595
e 112 817
e 112 993
e 112 403
e 113 373
e 113 965
e 113 763
e 114 732
e 114 459
e 114 869
e 114 927
e 115 666
e 115 417
e 115 514
e 115 249
e 116 645
e 116 387
e 116 954
e 116 851
e 116 631
e 117 393
e 117 417
e 117 363
e 117 993
e 117 307
e 118 551
e 118 165
e 118 439
e 118 295
e 120 687
e 120 363
e 122 524
e 122 673
e 122 616
e 122 251
e 122 297
e 124 258
e 124 895
e 124 585
e 124 357
e 124 941
e 125 364
e 125 325
e 125 793
e 125 471
e 125 806
e 126 300
e 126 195
e 126 932
e 126 805
e 127 975
e 127 493
e 127 620
e 128 886
e 128 424
e 128 324
e 129 750
e 129 173
e 129 636
e 129 991
e 130 841
e 130 703
e 130 580
e 130 388
e 131 569
e 131 935
e 131 625
e 131 761
e 133 882
e 133 472
e 133 648
e 133 153
e 133 822
e 133 168
e 134 440
e 134 866
e 134 211
e 134 470
e 134 335
e 134 822
e 134 381
e 134 548
e 135 175
e 135 399
e 135 650
e 135 955
e 136 745
e 136 454
e 136 521
e 136 760
e 136 820
e 138 522
e 138 236
e 138 553
e 138 878
e 138 380
e 138 686
e 138 761
e 138 819
e 140 329
e 140 383
e 140 546
e 141 403
e 141 256
e 141 892
e 141 292
e 141 296
e 141 261
e 144 704
e 144 200
e 144 990
e 146 524
e 146 724
e 146 540
e 146 407
e 146 174
e 146 945
e 146 641
e 147 646
e 147 785
e 147 815
e 147 248
e 151 721
e 151 994
e 153 291
e 153 852
e 153 823
e 153 696
e 155 954
e 155 779
e 155 201
e 156 617
e 156 987
e 156 382
e 158 572
e 158 600
e 158 646
e 158 470
e 159 503
e 159 175
e 159 931
e 161 943
e 161 876
e 165 829
e 165 753
e 165 925
e 165 590
e 165 481
e 167 335
e 167 287
e 168 707
e 169 216
e 169 481
e 169 315
e 171 458
e 171 307
e 171 829
e 171 316
e 172 283
e 172 328
e 172 496
e 173 883
e 173 775
e 174 650
e 174 692
e 174 646
e 175 980
e 175 749
e 175 683
e 175 599
e 175 459
e 175 223
e 175 193
e 176 328
e 176 226
e 176 219
e 177 308
e 177 357
e 177 680
e 177 384
e 177 994
e 177 464
e 177 226
e 178 328
e 178 927
e 178 319
e 178 192
e 178 748
e 178 673
e 178 663
e 180 846
e 185 382
e 185 792
e 186 330
e 186 537
e 186 554
e 189 942
e 189 906
e 189 602
e 191 656
e 191 315
e 191 658
e 192 966
e 192 394
e 192 694
e 193 927
e 193 256
e 193 294
e 193 580
e 194 197
e 194 379
e 194 835
e 194 490
e 195 558
e 195 752
e 197 523
e 200 575
e 200 403
e 200 777
e 201 608
e 201 227
e 202 984
e 202 671
e 202 317
e 203 919
e 203 587
e 203 707
e 204 487
e 204 356
e 204 996
e 204 644
e 204 757
e 204 420
e 204 252
e 204 767
e 204 382
e 204 457
e 206 558
e 206 726
e 206 319
e 207 685
e 207 618
e 207 658
e 207 246
e 207 459
e 207 524
e 208 215
e 208 562
e 208 732
e 210 477
e 210 242
e 210 571
e 211 733
e 211 330
e 212 698
e 212 239
e 212 872
e 212 306
e 212 798
e 212 338
e 213 748
e 213 554
e 215 881
e 215 938
e 216 851
e 216 308
e 216 600
e 217 642
e 217 644
e 217 482
e 217 720
e 219 315
e 219 865
e 219 424
e 219 376
e 219 621
e 220 742
e 220 986
e 221 225
e 221 513
e 221 662
e 221 859
e 221 905
e 221 379
e 222 590
e 222 337
e 222 566
e 223 430
e 223 344
e 224 335
e 224 315
e 224 302
e 224 557
e 224 529
e 225 245
e 225 522
e 225 732
e 225 391
e 226 870
e 227 608
e 227 958
e 227 954
e 228 978
e 228 582
e 228 795
e 228 710
e 229 319
e 229 859
e 229 758
e 229 620
e 232 422
e 232 677
e 232 710
e 232 698
e 234 335
e 234 842
e 234 664
e 236 408
e 236 902
e 236 905
e 238 924
e 238 356
e 239 373
e 239 391
e 239 704
e 239 457
e 239 974
e 239 694
e 239 302
e 240 987
e 240 703
e 240 470
e 241 268
e 241 556
e 241 525
e 242 324
e 242 916
e 242 604
e 242 262
e 243 347
e 243 377
e 243 444
e 244 664
e 244 554
e 244 909
e 244 604
e 244 747
e 244 659
e 245 822
e 245 503
e 245 387
e 246 300
e 246 514
e 246 301
e 246 802
e 247 457
e 247 597
e 247 304
e 247 378
e 247 854
e 248 275
e 248 361
e 249 254
e 249 485
e 249 748
e 250 761
e 250 684
e 251 753
e 251 548
e 251 877
e 251 277
e 251 531
e 252 521
e 252 817
e 252 904
e 252 281
e 253 932
e 253 776
e 254 806
e 254 746
e 254 357
e 254 919
e 256 414
e 256 908
e 256 475
e 256 725
e 256 630
e 256 375
e 258 803
e 258 562
e 258 423
e 258 594
e 259 876
e 259 433
e 259 817
e 259 979
e 260 942
e 260 599
e 260 538
e 261 448
e 261 776
e 261 925
e 261 756
e 262 746
e 262 692
e 262 770
e 262 496
e 264 760
e 264 937
e 264 669
e 264 643
e 264 618
e 264 448
e 265 996
e 265 325
e 267 877
e 267 270
e 267 388
e 268 426
e 268 818
e 268 340
e 268 542
e 268 782
e 268 380
e 269 681
e 269 685
e 269 675
e 269 762
e 270 588
e 273 965
e 273 687
e 273 566
e 273 901
e 274 337
e 274 308
e 274 960
e 275 600
e 275 555
e 275 289
e 275 851
e 276 548
e 276 779
e 276 325
e 276 934
e 277 777
e 277 600
e 277 897
e 277 597
e 277 904
e 277 876
e 277 359
e 279 552
e 279 837
e 279 489
e 280 685
e 280 338
e 280 681
e 280 415
e 280 903
e 281 751
e 281 326
e 283 599
e 283 914
e 285 654
e 286 465
e 286 361
e 286 904
e 286 388
e 287 374
e 287 571
e 289 818
e 289 852
e 289 521
e 291 603
e 291 942
e 291 633
e 291 890
e 292 674
e 292 874
e 293 986
e 293 679
e 293 601
e 293 993
e 294 630
e 294 676
e 295 520
e 295 320
e 296 303
e 297 846
e 297 739
e 299 476
e 299 894
e 299 445
e 299 880
e 299 950
e 299 927
e 299 348
e 300 341
e 300 876
e 300 414
e 300 579
e 300 366
e 300 663
e 301 498
e 301 724
e 302 906
e 302 714
e 302 629
e 302 752
e 303 747
e 303 555
e 303 876
e 304 378
e 304 737
e 304 510
e 306 775
e 306 781
e 306 408
e 306 600
e 307 863
e 307 764
e 307 775
e 307 778
e 308 914
e 308 684
e 308 566
e 308 818
e 308 726
e 309 555
e 309 569
e 309 553
e 310 630
e 310 867
e 310 750
e 310 745
e 312 821
e 312 499
e 312 778
e 312 784
e 312 793
e 313 858
e 313 692
e 313 710
e 313 764
e 314 933
e 314 794
e 314 747
e 315 485
e 315 926
e 315 533
e 316 737
e 316 683
e 317 521
e 317 703
e 317 761
e 319 703
e 319 748
e 319 588
e 320 449
e 320 993
e 321 840
e 321 459
e 324 673
e 324 525
e 325 898
e 325 425
e 325 852
e 325 405
e 325 399
e 326 823
e 326 558
e 327 572
e 327 937
e 327 955
e 327 547
e 327 523
e 327 733
e 328 756
e 329 957
e 330 904
e 330 630
e 333 444
e 333 425
e 333 626
e 333 947
e 333 844
e 333 876
e 334 520
e 334 676
e 335 672
e 335 754
e 335 870
e 335 341
e 335 562
e 335 678
e 335 587
e 335 943
e 335 616
e 337 422
e 338 778
e 338 917
e 339 900
e 339 380
e 340 636
e 340 449
e 340 754
e 341 598
e 341 862
e 341 536
e 341 969
e 341 886
e 342 976
e 342 493
e 342 498
e 344 676
e 344 815
e 344 845
e 346 728
e 346 917
e 346 945
e 346 948
e 347 784
e 347 820
e 348 878
e 348 696
e 348 790
e 348 637
e 349 902
e 349 434
e 349 492
e 349 359
e 349 792
e 349 687
e 350 518
e 350 499
e 351 509
e 351 644
e 351 739
e 351 445
e 351 491
e 352 649
e 352 838
e 352 970
e 353 495
e 353 687
e 353 408
e 354 418
e 354 802
e 356 845
e 356 786
e 356 719
e 357 826
e 357 749
e 357 984
e 358 365
e 358 835
e 358 379
e 359 438
e 359 917
e 360 933
e 360 845
e 360 517
e 361 430
e 361 468
e 361 666
e 363 873
e 363 898
e 363 786
e 364 612
e 364 546
e 365 885
e 365 377
e 366 496
e 367 776
e 367 673
e 367 893
e 367 872
e 367 514
e 367 395
e 369 775
e 369 960
e 369 939
e 370 704
e 370 726
e 370 579
e 370 562
e 373 433
e 373 747
e 374 725
e 374 554
e 374 728
e 374 570
e 375 612
e 375 784
e 376 702
e 376 835
e 376 426
e 377 960
e 377 429
e 378 616
e 378 793
e 379 624
e 379 914
e 380 572
e 381 894
e 381 420
e 382 821
e 382 622
e 382 498
e 383 894
e 383 400
e 384 989
e 384 694
e 387 805
e 387 865
e 391 842
e 393 870
e 393 558
e 394 752
e 394 881
e 394 483
e 394 604
e 394 479
e 395 926
e 395 528
e 395 753
e 395 704
e 395 983
e 397 911
e 397 422
e 397 465
e 397 444
e 399 658
e 399 442
e 400 658
e 400 641
e 400 417
e 401 416
e 401 866
e 401 939
e 403 767
e 403 754
e 403 794
e 403 703
e 405 524
e 405 907
e 407 950
e 407 985
e 407 475
e 407 744
e 408 696
e 408 557
e 410 631
e 410 545
e 410 630
e 413 740
e 413 692
e 413 925
e 413 865
e 413 536
e 413 844
e 414 533
e 414 859
e 414 597
e 415 690
e 415 698
e 415 696
e 416 685
e 416 603
e 416 686
e 416 454
e 417 727
e 417 564
e 417 767
e 417 960
e 418 995
e 418 814
e 418 825
e 419 926
e 419 694
e 419 673
e 420 893
e 420 598
e 422 565
e 422 540
e 422 525
e 422 782
e 422 841
e 422 426
e 423 436
e 423 786
e 425 988
e 425 594
e 426 817
e 427 903
e 427 853
e 427 611
e 427 852
e 427 533
e 428 532
e 428 791
e 428 837
e 428 742
e 429 482
e 429 663
e 429 694
e 429 807
e 429 707
e 429 733
e 430 780
e 430 755
e 432 659
e 432 877
e 433 458
e 433 726
e 434 926
e 434 695
e 434 610
e 434 978
e 436 468
e 436 928
e 436 754
e 437 983
e 437 507
e 438 638
e 439 914
e 439 892
e 439 989
e 440 975
e 440 621
e 442 646
e 442 880
e 442 616
e 445 491
e 445 924
e 446 791
e 446 599
e 447 457
e 447 487
e 447 924
e 448 524
e 448 852
e 449 529
e 449 885
e 449 947
e 449 524
e 451 726
e 451 978
e 451 686
e 451 557
e 451 762
e 451 594
e 451 700
e 452 873
e 452 805
e 452 836
e 452 813
e 454 680
e 454 690
e 455 866
e 455 574
e 455 520
e 455 679
e 455 934
e 458 993
e 458 707
e 459 920
e 459 941
e 459 461
e 460 477
e 460 571
e 460 970
e 460 851
e 460 927
e 460 837
e 461 570
e 461 749
e 461 598
e 461 660
e 461 580
e 461 685
e 461 740
e 464 737
e 464 614
e 464 489
e 465 765
e 465 537
e 465 961
e 466 587
e 466 760
e 470 553
e 471 664
e 471 863
e 472 733
e 472 930
e 475 522
e 475 911
e 476 607
e 476 798
e 476 752
e 477 974
e 479 643
e 479 520
e 480 625
e 480 863
e 480 805
e 481 825
e 481 896
e 481 569
e 482 973
e 483 555
e 483 932
e 484 569
e 484 614
e 485 859
e 485 633
e 485 767
e 485 786
e 487 854
e 489 618
e 489 706
e 489 931
e 489 510
e 490 927
e 490 757
e 490 756
e 490 806
e 491 565
e 491 842
e 491 608
e 492 673
e 492 623
e 493 858
e 493 774
e 493 700
e 495 976
e 495 883
e 496 679
e 498 618
e 499 713
e 503 562
e 505 833
e 505 911
e 505 795
e 505 935
e 505 959
e 507 875
e 507 564
e 507 530
e 509 737
e 509 999
e 509 798
e 510 838
e 512 650
e 512 547
e 512 805
e 513 852
e 513 636
e 514 532
e 514 792
e 514 530
e 514 642
e 514 615
e 517 910
e 517 546
e 517 724
e 517 665
e 518 938
e 518 599
e 518 660
e 518 654
e 518 589
e 520 916
e 520 795
e 520 969
e 521 907
e 522 893
e 522 565
e 523 760
e 523 903
e 523 721
e 523 654
e 524 748
e 524 656
e 524 570
e 525 873
e 525 545
e 528 721
e 529 698
e 529 780
e 529 676
e 529 764
e 529 648
e 531 986
e 531 902
e 532 687
e 533 594
e 533 614
e 534 647
e 534 831
e 534 797
e 536 658
e 536 849
e 537 958
e 538 660
e 538 933
e 538 744
e 538 762
e 540 748
e 540 937
e 540 624
e 542 714
e 542 948
e 543 756
e 543 999
e 543 589
e 545 559
e 545 838
e 546 745
e 547 776
e 548 890
e 549 690
e 549 625
e 549 637
e 550 945
e 550 982
e 551 892
e 551 575
e 552 589
e 552 991
e 552 788
e 552 959
e 552 614
e 553 645
e 553 957
e 554 762
e 556 606
e 558 870
e 559 739
e 562 765
e 562 968
e 564 692
e 564 941
e 565 625
e 569 852
e 569 853
e 569 755
e 569 890
e 570 984
e 570 934
e 571 651
e 571 775
e 571 919
e 573 607
e 573 808
e 573 823
e 573 594
e 573 971
e 574 685
e 574 849
e 575 925
e 576 702
e 576 938
e 576 604
e 578 702
e 579 988
e 579 852
e 579 726
e 580 852
e 582 603
e 582 720
e 585 763
e 587 932
e 588 749
e 588 625
e 589 624
e 589 667
e 589 607
e 590 877
e 591 817
e 591 725
e 591 838
e 594 865
e 594 675
e 595 614
e 599 892
e 599 867
e 599 724
e 599 729
e 600 985
e 600 921
e 602 647
e 602 676
e 603 637
e 603 760
e 604 753
e 606 840
e 606 963
e 606 664
e 608 833
e 608 660
e 608 925
e 610 686
e 610 884
e 611 801
e 611 726
e 611 740
e 611 995
e 611 892
e 612 900
e 615 797
e 615 943
e 616 939
e 616 978
e 616 940
e 616 908
e 617 820
e 617 837
e 618 835
e 620 941
e 620 803
e 621 778
e 621 838
e 622 696
e 622 930
e 622 666
e 622 847
e 623 748
e 623 638
e 624 757
e 625 872
e 626 895
e 626 680
e 626 721
e 626 859
e 626 667
e 629 922
e 629 978
e 629 658
e 630 956
e 630 933
e 630 675
e 631 918
e 631 985
e 631 777
e 633 914
e 633 993
e 636 922
e 636 928
e 637 698
e 637 943
e 637 874
e 638 826
e 638 659
e 638 874
e 641 677
e 643 970
e 643 808
e 645 676
e 645 880
e 646 957
e 646 819
e 646 917
e 647 948
e 647 955
e 648 982
e 648 781
e 648 784
e 649 707
e 649 822
e 650 793
e 650 746
e 650 950
e 650 681
e 651 965
e 651 849
e 653 695
e 653 963
e 654 905
e 658 833
e 659 727
e 662 963
e 664 748
e 664 884
e 664 934
e 665 948
e 665 808
e 666 867
e 667 719
e 669 920
e 669 896
e 669 790
e 671 755
e 671 733
e 672 979
e 672 908
e 672 954
e 673 784
e 673 757
e 674 815
e 674 683
e 675 687
e 675 854
e 675 920
e 675 903
e 676 910
e 676 921
e 676 841
e 678 836
e 679 733
e 679 980
e 679 917
e 680 719
e 680 782
e 680 854
e 683 854
e 685 704
e 685 920
e 686 704
e 686 989
e 686 869
e 686 987
e 686 763
e 687 987
e 690 696
e 690 993
e 690 742
e 692 926
e 692 900
e 692 819
e 693 763
e 693 801
e 694 883
e 696 828
e 698 751
e 698 910
e 698 807
e 700 724
e 701 828
e 701 920
e 701 765
e 701 867
e 702 886
e 704 901
e 706 724
e 706 974
e 706 829
e 706 833
e 707 851
e 710 877
e 710 874
e 713 753
e 713 882
e 713 926
e 713 805
e 714 840
e 714 980
e 719 973
e 720 748
e 721 957
e 721 933
e 725 877
e 725 790
e 728 806
e 729 984
e 729 925
e 733 847
e 737 876
e 737 968
e 739 930
e 739 924
e 740 896
e 742 973
e 742 825
e 744 966
e 744 779
e 745 990
e 747 910
e 748 900
e 749 791
e 751 884
e 751 925
e 751 777
e 752 870
e 753 907
e 754 897
e 754 878
e 755 780
e 756 775
e 756 963
e 758 854
e 758 983
e 760 976
e 762 945
e 762 932
e 762 882
e 763 842
e 763 791
e 764 772
e 764 767
e 764 977
e 764 805
e 765 897
e 770 859
e 770 900
e 772 911
e 772 876
e 774 826
e 774 858
e 774 926
e 777 909
e 777 788
e 778 990
e 778 834
e 779 818
e 782 849
e 784 865
e 785 969
e 785 942
e 785 933
e 786 833
e 786 880
e 788 893
e 790 948
e 791 975
e 791 807
e 793 866
e 794 985
e 797 905
e 801 828
e 801 960
e 803 914
e 805 878
e 807 875
e 808 965
e 811 885
e 811 931
e 811 814
e 813 984
e 813 892
e 814 877
e 814 955
e 815 826
e 818 988
e 818 947
e 821 990
e 823 880
e 828 880
e 829 876
e 831 862
e 834 985
e 835 940
e 836 977
e 837 892
e 837 999
e 838 978
e 840 900
e 844 945
e 846 990
e 847 924
e 853 909
e 862 975
e 866 898
e 870 871
e 871 978
e 875 991
e 876 971
e 881 930
e 885 954
e 886 942
e 890 945
e 892 995
e 896 990
e 896 907
e 897 921
e 897 982
e 897 933
e 902 977
e 903 941
e 906 931
e 914 957
e 922 963
e 924 956
e 925 975
e 925 959
e 928 987
e 934 938
e 940 961
e 945 968
e 954 993
e 958 977
e 971 979
e 980 982
